p cnf 22 11
e 1 0
a 2 0
e 3 0
a 4 0
e 5 0
a 6 0
e 7 0
a 8 9 10 0
e 11 0
a 12 0
e 13 14 0
a 15 0
e 16 0
a 17 18 19 0
e 20 21 22 0
-9 -20 0
-3 -4 -13 -7 -18 0
-13 12 22 -17 0
17 22 3 -13 9 0
-17 -5 15 0
17 -14 8 0
17 21 -13 0
-2 -1 -16 0
17 13 -6 0
-11 -6 21 14 0
-10 -19 3 -16 -6 0
